NAME /Users/henri/Research/solvers/instances/idol-instances/robust/collection/cbp_Subramanyam_et_al_2020/CapBud_N5_14/models/uncertain_technology_matrix/
ROWS
 N  OBJ
 L  capacity
 L  c_295
 L  c_296
 L  c_297
 L  c_298
 L  c_299
COLUMNS
    MARKER    'MARKER'                 'INTORG'
    x_0        OBJ        0.216887
    x_0        c_295      1
    x_0        capacity   0.0433774
    x_1        OBJ        1.37251
    x_1        c_296      1
    x_1        capacity   0.274503
    x_2        OBJ        2.60629
    x_2        c_297      1
    x_2        capacity   0.521257
    x_3        OBJ        8.71083
    x_3        c_298      1
    x_3        capacity   1.74217
    x_4        OBJ        1.7941
    x_4        c_299      1
    x_4        capacity   0.35882
    y_0        OBJ        0.17351
    y_0        c_295      1
    y_0        capacity   0.0433774
    y_1        OBJ        1.09801
    y_1        c_296      1
    y_1        capacity   0.274503
    y_2        OBJ        2.08503
    y_2        c_297      1
    y_2        capacity   0.521257
    y_3        OBJ        6.96866
    y_3        c_298      1
    y_3        capacity   1.74217
    y_4        OBJ        1.43528
    y_4        c_299      1
    y_4        capacity   0.35882
    MARKER    'MARKER'                 'INTEND'
RHS
    RHS       capacity   7.35031
    RHS       c_295      1
    RHS       c_296      1
    RHS       c_297      1
    RHS       c_298      1
    RHS       c_299      1
BOUNDS
 LI BND       x_0        0
 UI BND       x_0        1
 LI BND       x_1        0
 UI BND       x_1        1
 LI BND       x_2        0
 UI BND       x_2        1
 LI BND       x_3        0
 UI BND       x_3        1
 LI BND       x_4        0
 UI BND       x_4        1
 LI BND       y_0        0
 UI BND       y_0        1
 LI BND       y_1        0
 UI BND       y_1        1
 LI BND       y_2        0
 UI BND       y_2        1
 LI BND       y_3        0
 UI BND       y_3        1
 LI BND       y_4        0
 UI BND       y_4        1
ENDATA
